(set-logic QF_S)
(declare-fun var0 () String)
(assert (RegexIn var0 (RegexConcat (RegexPlus (RegexStar (Str2Reg "0"))) (RegexConcat (RegexUnion (RegexPlus (Str2Reg "1")) (RegexPlus (Str2Reg "2"))) (RegexConcat (RegexStar (RegexStar (Str2Reg "3"))) (RegexConcat (RegexStar (RegexUnion (Str2Reg "444") (Str2Reg "555"))) (RegexConcat (RegexUnion (RegexUnion (Str2Reg "6") (Str2Reg "77")) (RegexUnion (Str2Reg "88") (Str2Reg "999"))) (RegexConcat (RegexUnion (RegexStar (Str2Reg "a")) (RegexStar (Str2Reg "bb"))) (RegexConcat (RegexStar (RegexStar (Str2Reg "c"))) (RegexConcat (RegexPlus (RegexPlus (Str2Reg "d"))) (RegexConcat (RegexStar (RegexUnion (Str2Reg "eee") (Str2Reg "fff"))) (RegexConcat (RegexUnion (RegexUnion (Str2Reg "gg") (Str2Reg "hhh")) (RegexUnion (Str2Reg "ii") (Str2Reg "j"))) (RegexUnion (RegexPlus (Str2Reg "kkk")) (RegexPlus (Str2Reg "l")))))))))))))))
(check-sat)